# Fcc Al oriented X=[100], Y=[010], Z=[001]. Full format Test
1.000000
4.04600000 0.00000000 0.00000000
0.00000000 4.04600000 0.00000000
0.00000000 0.00000000 8.09200000
Al Cu
3 5
Selective dynamics
Cartesian
0.00000000 0.00000000 0.00000000 T F T
2.02300000 2.02300000 0.00000000 T F T
0.00000000 2.02300000 2.02300000 T F T
2.02300000 0.00000000 2.02300000 T F T
0.00000000 0.00000000 4.04600000 T F T
2.02300000 2.02300000 4.04600000 T F T
0.00000000 2.02300000 6.06900000 T T T
2.02300000 0.00000000 6.06900000 T T T
Lattice velocites and vectors
    1
4.04600000 0.00000000 0.00000000
0.00000000 4.04600000 0.00000000
0.00000000 0.00000000 8.09200000
4.04600000 0.00000000 0.00000000
0.00000000 4.04600000 0.00000000
0.00000000 0.00000000 8.09200000

4.04600000 0.00000000 0.00000000
0.00000000 4.04600000 0.00000000
0.00000000 0.00000000 8.09200000
4.04600000 0.00000000 0.00000000
0.00000000 4.04600000 0.00000000
0.00000000 0.00000000 8.09200000
0.00000000 1.04600000 0.00000000
1.00000000 0.00000000 2.09200000